173309
173254
173181
173129
173102
173082
172975
172975
172975
172900
172863
172900
172886
172856
172785
172797
172865
172797
172820
172766
172690
172675
172693
172650
172650
172611
172597
172649
172597
172597
172597
172525
172525
172526
172548
172526
172471
172513
172469
172537
172526
172536
172460
172496
172460
172411
172458
172411
172386
172344
172328
172326
172302
172302
172302
172302
172302
172364
172337
172375
172322
172305
172305
172390
172383
172332
172392
172317
172328
172347
172392
172452
172392
172344
172286
172297
172337
172452
172469
172476
172463
172485
172450
172493
172498
172473
172491
172501
172504
172391
172347
172421
172421
172458
172448
172451
172432
172461
172394
172400
169755
282.45